NAME : A-n39-k6
COMMENT : (Augerat et al, No of trucks: 6, Optimal value: 831)
TYPE : CVRP
DIMENSION : 39
EDGE_WEIGHT_TYPE : EUC_2D 
CAPACITY : 100
NODE_COORD_SECTION 
 1 39 19
 2 79 19
 3 41 79
 4 25 31
 5 63 93
 6 33 5
 7 69 17
 8 57 73
 9 53 75
 10 1 1
 11 79 73
 12 59 5
 13 1 37
 14 41 31
 15 23 73
 16 37 27
 17 85 93
 18 93 13
 19 85 45
 20 49 91
 21 55 43
 22 83 29
 23 93 49
 24 87 23
 25 31 23
 26 19 97
 27 41 9
 28 83 61
 29 9 7
 30 13 13
 31 43 37
 32 13 61
 33 71 51
 34 45 93
 35 93 55
 36 5 97
 37 81 11
 38 7 53
 39 7 41
DEMAND_SECTION 
1 0
2 23
3 21
4 25
5 14
6 23
7 19
8 14
9 15
10 20
11 23
12 13
13 20
14 25
15 25
16 14
17 20
18 18
19 25
20 22
21 22
22 24
23 25
24 15
25 18
26 18
27 16
28 17
29 25
30 10
31 22
32 25
33 21
34 14
35 14
36 12
37 25
38 22
39 24
DEPOT_SECTION 
 1  
 -1  
EOF 
